(set-logic QF_BV)
(declare-fun x0 () (_ BitVec 17))
(declare-fun x1 () (_ BitVec 17))
(declare-fun x2 () (_ BitVec 17))
(declare-fun x3 () (_ BitVec 17))
(declare-fun x4 () (_ BitVec 17))
(declare-fun x5 () (_ BitVec 17))
(assert (= x0 (bvmul x2 x5)))
(assert (= x3 (bvmul x5 x1)))
(assert (= x4 (bvadd x0 x3)))
(assert (= (_ bv0 17) (bvadd x2 x1)))
(assert (= false (= x4 (_ bv0 17))))
(check-sat)
(exit)
